3041
6161
6324
1092
1363
3374
6570
3842
2820
5290
8584
10093
4055
1320
5146
8369
1899
8533
5214
3214
8685
2639
9158
1416
8667
9104
1630
2487
2748
6284
2544
8291
2991
3786
1369
6569
4495
1008
3138
3929
10037
1487
4585
3003
4353
9855
1683
1775
944
4878
8387
